p cnf 50 1800 
1 41 -49 0
1 23 49 0
1 -46 7 0
1 38 -48 0
1 11 -10 0
1 -16 7 0
1 -22 -20 0
1 -15 26 0
1 -25 -3 0
1 -2 -12 0
1 19 36 0
1 34 -22 0
1 -32 -19 0
1 26 -24 0
1 -44 45 0
1 21 -28 0
1 -30 -8 0
1 -19 -42 0
1 -28 50 0
1 22 46 0
1 -15 -36 0
1 -10 17 0
1 12 -19 0
1 -46 -24 0
1 32 -20 0
1 -12 -35 0
1 34 30 0
1 25 -6 0
1 -42 7 0
1 24 -15 0
1 34 -14 0
1 38 46 0
1 15 -12 0
1 46 -5 0
1 -35 16 0
1 -21 41 0
1 48 27 0
1 41 17 0
1 31 24 0
1 -19 -8 0
1 20 6 0
1 -11 -25 0
1 40 27 0
1 17 1 0
1 -27 36 0
1 -3 -41 0
1 15 -46 0
1 4 38 0
1 -44 25 0
1 -50 -30 0
1 -6 2 0
1 -3 -23 0
1 -8 22 0
1 -13 -39 0
1 35 -45 0
1 32 25 0
1 -50 -47 0
1 -27 -26 0
1 28 -37 0
1 9 41 0
1 -13 5 0
1 44 -21 0
1 15 -11 0
1 36 -26 0
1 -23 -50 0
1 -26 22 0
1 -9 34 0
1 -25 -40 0
1 45 -12 0
1 32 -13 0
1 -24 33 0
1 -8 -15 0
1 -14 -29 0
1 -1 8 0
1 -42 25 0
1 15 11 0
1 -22 15 0
1 -28 15 0
1 47 42 0
1 -6 5 0
1 34 -13 0
1 -21 3 0
1 -27 -20 0
1 30 32 0
1 46 49 0
1 13 3 0
1 45 -34 0
1 39 48 0
1 10 -30 0
1 -32 50 0
1 -19 -21 0
1 -2 -49 0
1 47 3 0
1 5 -44 0
1 -27 32 0
1 -29 -19 0
1 48 -45 0
1 -45 11 0
1 31 -36 0
1 -35 -10 0
1 -13 49 0
1 43 9 0
1 -40 15 0
1 34 -23 0
1 17 25 0
1 35 47 0
1 -33 35 0
1 -45 26 0
1 25 39 0
1 -48 -40 0
1 5 -20 0
1 42 12 0
1 36 29 0
1 -26 43 0
1 27 31 0
1 -7 -23 0
1 -11 2 0
1 -42 -33 0
1 -3 -1 0
1 13 -3 0
1 32 22 0
1 15 -2 0
1 33 -40 0
1 12 41 0
1 -42 -18 0
1 -1 27 0
1 -27 -12 0
1 -15 -1 0
1 22 -5 0
1 -6 -18 0
1 -7 40 0
1 -30 47 0
1 15 22 0
1 48 33 0
1 45 15 0
1 16 -50 0
1 4 8 0
1 -25 -50 0
1 -40 25 0
1 -22 -40 0
1 -12 45 0
1 -27 18 0
1 -33 -47 0
1 -46 -35 0
1 42 8 0
1 -8 -7 0
1 31 47 0
1 -37 -6 0
1 50 -37 0
1 -5 -40 0
1 -36 -28 0
1 -13 18 0
1 25 -40 0
1 -46 -18 0
1 -14 44 0
1 -49 -15 0
1 1 5 0
1 -45 -22 0
1 49 25 0
1 43 -15 0
1 -36 49 0
1 27 4 0
1 31 -17 0
1 -15 17 0
1 40 1 0
1 43 45 0
1 7 -21 0
1 -36 27 0
1 25 10 0
1 14 -40 0
1 -6 40 0
1 -6 -35 0
1 36 -4 0
1 -49 17 0
1 38 5 0
1 -31 37 0
1 47 18 0
1 7 29 0
1 -19 43 0
1 28 22 0
1 -26 28 0
1 -45 -37 0
1 41 34 0
1 -21 50 0
1 -18 33 0
1 -12 -30 0
1 22 -19 0
1 41 24 0
1 -1 -4 0
1 -40 -19 0
1 2 33 0
1 -32 -27 0
1 10 15 0
1 44 10 0
1 29 5 0
1 -29 -26 0
1 29 24 0
1 -42 -1 0
1 33 50 0
1 26 -4 0
1 19 37 0
1 -47 8 0
1 -12 -41 0
1 17 -29 0
1 2 -43 0
1 -43 -12 0
1 -11 -4 0
1 7 -4 0
1 -41 -30 0
1 37 -14 0
1 -4 6 0
1 34 -7 0
1 -50 -29 0
1 41 17 0
1 -20 -8 0
1 11 -2 0
1 -39 38 0
1 50 26 0
1 -14 26 0
1 41 23 0
1 2 13 0
1 -30 -10 0
1 -48 14 0
1 -15 49 0
1 37 -25 0
1 -1 11 0
1 -36 -28 0
1 -50 5 0
1 17 -3 0
1 -12 5 0
1 19 -32 0
1 -30 14 0
1 39 -41 0
1 1 -42 0
1 19 37 0
1 42 5 0
1 7 37 0
1 -42 38 0
1 -19 -44 0
1 7 -29 0
1 -20 17 0
1 8 -37 0
1 -24 18 0
1 23 -14 0
1 -1 -26 0
1 13 -24 0
1 -17 46 0
1 25 -44 0
1 10 4 0
1 -40 21 0
1 -38 39 0
1 -3 49 0
1 -25 -36 0
1 10 -49 0
1 44 47 0
1 40 -20 0
1 23 27 0
1 47 -11 0
1 -49 2 0
1 1 33 0
1 18 -49 0
1 47 -30 0
1 27 5 0
1 24 -22 0
1 49 -32 0
1 -42 -35 0
1 -36 -24 0
1 7 45 0
1 44 -23 0
1 -2 -6 0
1 -10 -41 0
1 -12 9 0
1 41 -40 0
1 25 36 0
1 -9 14 0
1 -9 8 0
1 -30 -41 0
1 46 23 0
1 -13 3 0
1 -12 21 0
1 -11 -41 0
1 -26 -8 0
1 -22 -42 0
1 -49 -39 0
1 29 24 0
1 -46 20 0
1 -23 -20 0
1 -41 18 0
1 -8 -22 0
1 29 30 0
1 -21 17 0
1 -6 -11 0
1 34 -8 0
1 -27 -40 0
1 -9 -21 0
1 -39 -19 0
1 -41 34 0
1 13 -46 0
1 13 49 0
1 10 -50 0
1 7 -10 0
1 -50 11 0
1 32 13 0
1 32 7 0
1 -40 44 0
1 -40 10 0
1 8 37 0
1 37 -21 0
1 31 -33 0
1 -43 6 0
1 -19 -45 0
1 1 -8 0
1 -1 -12 0
1 -21 -28 0
1 -15 11 0
1 -31 6 0
1 -38 -17 0
1 22 -28 0
1 -23 47 0
1 4 11 0
1 -23 -5 0
1 32 -36 0
1 -47 -18 0
1 -23 39 0
1 -5 -29 0
1 7 -44 0
1 41 -7 0
1 -18 -13 0
1 -17 -44 0
1 -30 -5 0
1 22 -40 0
1 28 -41 0
1 20 -44 0
1 38 -27 0
1 34 4 0
1 -17 -21 0
1 -15 -23 0
1 28 -26 0
1 -16 -23 0
1 -14 -47 0
1 41 -36 0
1 13 -12 0
1 -16 -28 0
1 49 36 0
1 9 -48 0
1 -24 -26 0
1 -49 29 0
1 -25 9 0
1 -45 2 0
1 14 -50 0
1 27 49 0
1 -35 -27 0
1 -25 -44 0
1 -20 15 0
1 -43 20 0
1 -28 23 0
1 -25 -27 0
1 27 33 0
1 -32 28 0
1 5 -16 0
1 -9 -40 0
1 -5 -13 0
1 32 24 0
1 -47 49 0
1 26 13 0
1 46 -26 0
1 -4 33 0
1 -49 5 0
1 -45 -13 0
1 -26 30 0
1 4 -13 0
1 11 -1 0
1 -13 29 0
1 -4 43 0
1 26 31 0
1 -35 -2 0
1 -15 -16 0
1 -45 -25 0
1 -38 -16 0
1 -16 -19 0
1 -47 23 0
1 16 -23 0
1 3 -24 0
1 25 -45 0
1 -10 44 0
1 19 27 0
1 42 1 0
1 -20 39 0
1 11 -22 0
1 44 -26 0
1 -49 31 0
1 25 -49 0
1 -42 41 0
1 18 41 0
1 42 21 0
1 -9 2 0
1 -24 44 0
1 19 12 0
1 -42 46 0
1 -44 -2 0
1 -43 38 0
1 28 12 0
1 -32 -37 0
1 39 7 0
1 -1 4 0
1 -16 41 0
1 37 -26 0
1 28 23 0
1 -10 31 0
1 50 -7 0
1 37 -43 0
1 -2 36 0
1 15 13 0
1 -49 28 0
1 1 21 0
1 -35 -22 0
1 3 21 0
1 -28 19 0
1 12 13 0
1 49 1 0
1 14 40 0
1 -17 9 0
1 -30 40 0
1 12 23 0
1 43 25 0
1 -44 4 0
1 17 41 0
1 -41 38 0
1 27 -46 0
1 -5 -11 0
1 1 48 0
1 7 -18 0
1 33 -35 0
1 18 30 0
1 -49 -18 0
1 46 -4 0
1 -21 7 0
1 18 30 0
1 -27 -22 0
1 40 6 0
1 41 39 0
1 19 11 0
1 28 15 0
1 18 -16 0
1 22 -10 0
1 39 30 0
1 -2 -48 0
1 4 -14 0
1 2 21 0
1 -32 17 0
1 -31 -41 0
1 -6 -47 0
1 7 -48 0
1 28 -24 0
1 22 -10 0
1 23 32 0
1 -3 -21 0
1 -38 33 0
1 23 -26 0
1 23 -3 0
1 50 -22 0
1 46 35 0
1 -45 25 0
1 -7 12 0
1 -32 37 0
1 -19 -35 0
1 10 -4 0
1 6 25 0
1 -47 -35 0
1 20 38 0
1 -13 3 0
1 -14 -23 0
1 10 -19 0
1 4 2 0
1 -6 39 0
1 13 6 0
1 40 49 0
1 36 -10 0
1 12 -3 0
1 26 -43 0
1 12 36 0
1 -38 -32 0
1 20 -23 0
1 -28 20 0
1 -18 41 0
1 50 49 0
1 -1 -18 0
1 10 9 0
1 -44 -24 0
1 5 14 0
1 36 28 0
1 47 -31 0
1 -7 18 0
1 19 -49 0
1 -35 -32 0
1 -43 17 0
1 3 19 0
1 44 45 0
1 1 -15 0
1 -46 33 0
1 50 21 0
1 19 12 0
1 -43 -49 0
1 16 34 0
1 -2 -21 0
1 16 35 0
1 50 -34 0
1 -16 48 0
1 -19 -2 0
1 -13 36 0
1 -34 -37 0
1 20 41 0
1 11 -50 0
1 -35 -33 0
1 -16 -6 0
1 -4 23 0
1 25 -30 0
1 -15 -49 0
1 -36 32 0
1 -22 -15 0
1 14 -44 0
1 -26 -1 0
1 7 9 0
1 -31 20 0
1 -49 39 0
1 38 33 0
1 -15 -9 0
1 23 -5 0
1 -48 27 0
1 28 -16 0
1 -24 37 0
1 7 24 0
1 13 -1 0
1 33 -29 0
1 -38 50 0
1 -5 2 0
1 -29 31 0
1 -46 40 0
1 27 -33 0
1 -6 32 0
1 32 4 0
1 33 41 0
1 -40 -45 0
1 -47 26 0
1 -7 22 0
1 12 -20 0
1 2 45 0
1 -26 8 0
1 12 -44 0
1 35 34 0
1 29 -42 0
1 -18 15 0
1 -37 -31 0
1 -50 49 0
1 43 7 0
1 -14 36 0
1 30 49 0
1 -32 31 0
1 -22 -7 0
1 22 36 0
1 16 41 0
1 39 -42 0
1 -49 28 0
1 -14 -26 0
1 24 5 0
1 36 45 0
1 -2 3 0
1 -39 11 0
1 2 -37 0
1 29 -38 0
1 -16 -22 0
1 47 26 0
1 -31 29 0
1 24 43 0
1 -45 -21 0
1 -31 -27 0
1 14 -7 0
1 45 43 0
1 -14 7 0
1 -33 10 0
1 -38 8 0
1 -1 -2 0
1 -23 32 0
1 -9 15 0
1 22 6 0
1 -48 31 0
1 37 14 0
1 -23 4 0
1 11 22 0
1 -7 -6 0
1 -34 -38 0
1 22 -19 0
1 32 36 0
1 -11 37 0
1 -9 18 0
1 50 7 0
1 28 -33 0
1 38 7 0
1 45 20 0
1 -38 39 0
1 -25 -17 0
1 3 30 0
1 48 -6 0
1 12 -45 0
1 27 29 0
1 -36 -47 0
1 -17 5 0
1 44 38 0
1 4 5 0
1 35 -12 0
1 -17 -41 0
1 36 35 0
1 -14 -42 0
1 -39 13 0
1 17 25 0
1 -12 34 0
1 38 31 0
1 42 41 0
1 31 36 0
1 -3 -28 0
1 -5 28 0
1 -7 -40 0
1 -49 -44 0
1 22 9 0
1 -31 42 0
1 45 -50 0
1 -36 -18 0
1 -46 -19 0
1 47 17 0
1 -6 50 0
1 -44 27 0
1 35 7 0
1 -48 -9 0
1 9 -38 0
1 -6 8 0
1 27 15 0
1 32 -18 0
1 -17 9 0
1 35 29 0
1 -35 -41 0
1 50 21 0
1 8 42 0
1 49 -34 0
1 -49 -15 0
1 32 -23 0
1 31 9 0
1 -37 34 0
1 25 19 0
1 -39 -27 0
1 19 34 0
1 -18 24 0
1 -39 40 0
1 13 -12 0
1 21 29 0
1 -12 -44 0
1 13 32 0
1 -8 -43 0
1 -27 -8 0
1 31 36 0
1 -26 -4 0
1 -16 -10 0
1 -38 -40 0
1 -34 -21 0
1 -2 47 0
1 -39 45 0
1 2 -29 0
1 14 -19 0
1 -22 -42 0
1 2 -8 0
1 -48 -16 0
1 -36 -25 0
1 -21 24 0
1 19 33 0
1 12 -34 0
1 2 4 0
1 46 -42 0
1 -49 -34 0
1 -50 -25 0
1 49 5 0
1 -29 -20 0
1 3 4 0
1 -38 -18 0
1 21 4 0
1 46 -25 0
1 -8 50 0
1 -24 18 0
1 -23 15 0
1 -35 -21 0
1 25 13 0
1 31 42 0
1 46 -15 0
1 -40 -31 0
1 30 25 0
1 -42 46 0
1 11 -18 0
1 -39 12 0
1 25 34 0
1 25 27 0
1 42 -23 0
1 -4 -44 0
1 -18 32 0
1 27 -12 0
1 -29 38 0
1 -50 13 0
1 -47 5 0
1 -32 34 0
1 6 49 0
1 -42 31 0
1 12 -29 0
1 -41 42 0
1 -29 -7 0
1 20 16 0
1 -21 30 0
1 13 26 0
1 -24 28 0
1 9 21 0
1 49 -43 0
1 34 35 0
1 -42 44 0
1 -10 -42 0
1 -22 -13 0
1 38 6 0
1 -34 -31 0
1 -1 -13 0
1 -22 39 0
1 -46 -39 0
1 -29 8 0
1 -34 -29 0
1 -10 25 0
1 -27 44 0
1 21 40 0
1 2 7 0
1 -46 -40 0
1 -28 26 0
1 -33 30 0
1 8 17 0
1 -42 46 0
1 -40 30 0
1 -19 34 0
1 -41 -45 0
1 -34 22 0
1 48 -7 0
1 -36 -44 0
1 11 9 0
1 5 -43 0
1 22 -46 0
1 29 34 0
1 28 4 0
1 26 30 0
1 37 41 0
1 34 -50 0
1 -8 27 0
1 19 -16 0
1 -11 -10 0
1 43 42 0
1 -46 12 0
1 -42 -4 0
1 -45 -46 0
1 45 16 0
1 43 17 0
1 32 -22 0
1 -31 33 0
1 -25 40 0
1 -2 -24 0
1 28 35 0
1 -31 -21 0
1 -36 -21 0
1 -37 44 0
1 15 -41 0
1 23 -44 0
1 33 -11 0
1 -34 8 0
1 -42 47 0
1 -18 32 0
1 -2 -26 0
1 -20 8 0
1 -19 30 0
1 -48 29 0
1 -46 29 0
1 -5 4 0
1 36 17 0
1 15 -22 0
1 3 8 0
1 -16 -44 0
1 -24 14 0
1 -43 -40 0
1 -18 21 0
1 24 35 0
1 -2 43 0
1 15 46 0
1 -4 15 0
1 9 -21 0
1 35 -48 0
1 38 33 0
1 -4 -5 0
1 -40 -3 0
1 46 14 0
1 -10 12 0
1 -27 -16 0
1 36 35 0
1 -33 21 0
1 -3 11 0
1 -16 4 0
1 -7 20 0
1 34 -2 0
1 14 -38 0
1 3 -39 0
1 24 42 0
1 -13 4 0
1 14 -2 0
1 -6 5 0
1 25 31 0
1 33 -24 0
1 -11 8 0
1 47 10 0
1 -2 8 0
1 -12 -2 0
1 4 1 0
1 6 -40 0
1 -20 34 0
1 -7 39 0
1 -47 -33 0
1 43 -32 0
1 40 38 0
1 -40 -38 0
1 39 -31 0
1 20 -22 0
1 -5 11 0
1 -50 -38 0
1 -21 11 0
1 42 -1 0
1 -39 -15 0
1 3 -9 0
1 -39 22 0
1 -44 -9 0
1 20 38 0
1 26 -39 0
1 49 -3 0
1 4 -15 0
1 30 -4 0
1 13 40 0
1 12 9 0
1 18 -7 0
1 45 12 0
1 1 -22 0
1 -25 -23 0
1 38 12 0
1 -16 -39 0
1 -28 -22 0
1 -30 -38 0
1 -44 -47 0
1 9 42 0
1 13 -24 0
1 47 -48 0
1 -9 34 0
1 22 -48 0
1 -19 -30 0
1 -17 33 0
1 -30 -31 0
1 -23 -7 0
1 30 -4 0
1 1 37 0
1 -20 -9 0
1 -7 34 0
1 13 -31 0
1 -14 -19 0
1 -50 39 0
1 46 -26 0
1 -29 2 0
1 -11 38 0
1 -21 27 0
1 19 -1 0
1 24 -47 0
1 -37 7 0
1 37 14 0
1 -20 -46 0
1 47 20 0
1 -8 -48 0
1 -24 -2 0
1 -2 -48 0
1 44 -5 0
1 11 -9 0
1 23 -25 0
1 -21 50 0
1 19 -3 0
1 1 4 0
1 35 -17 0
1 -8 29 0
1 46 7 0
1 -11 -19 0
1 27 -20 0
1 -10 23 0
1 47 -21 0
1 -25 37 0
1 -3 2 0
1 30 -19 0
1 -25 -44 0
1 13 -8 0
1 27 -28 0
1 -50 -10 0
1 -31 12 0
1 48 41 0
1 42 7 0
1 -26 -33 0
1 -27 -28 0
1 -36 8 0
1 -35 -43 0
1 -2 -47 0
1 -8 23 0
1 13 3 0
1 -10 -17 0
1 -50 -24 0
1 1 -21 0
1 -28 43 0
1 -35 -47 0
1 43 28 0
1 50 7 0
1 9 12 0
1 29 -44 0
1 17 37 0
1 7 -19 0
1 -11 -1 0
1 -48 -43 0
1 -20 1 0
1 -7 47 0
1 -9 -50 0
1 43 36 0
1 -23 -19 0
1 38 -29 0
1 -30 -9 0
1 2 24 0
1 -24 -8 0
1 -5 23 0
1 22 31 0
1 -16 -22 0
1 47 18 0
1 31 -19 0
1 -11 -31 0
1 47 11 0
1 2 40 0
1 -36 22 0
1 -22 -8 0
1 30 -20 0
1 37 42 0
1 11 5 0
1 35 -47 0
1 -7 14 0
1 -3 -45 0
1 17 -26 0
1 -33 36 0
1 -6 -47 0
1 38 -39 0
1 44 -16 0
1 12 25 0
1 -39 -46 0
1 -41 8 0
1 -33 35 0
1 -20 28 0
1 17 18 0
1 -27 -2 0
1 21 -27 0
1 -37 -22 0
1 48 26 0
1 -5 -28 0
1 23 -4 0
1 32 -35 0
1 2 -11 0
1 12 -1 0
1 -28 25 0
1 -46 -12 0
1 -37 -17 0
1 -45 38 0
1 41 40 0
1 24 -15 0
1 25 -23 0
1 24 25 0
1 49 -47 0
1 -9 -10 0
1 -26 38 0
1 -26 18 0
1 -8 -45 0
1 -9 -7 0
1 11 -20 0
1 -39 -6 0
1 -20 -29 0
1 18 40 0
1 -27 -25 0
1 11 47 0
1 35 -33 0
1 39 -47 0
1 -16 31 0
1 -36 17 0
1 -46 34 0
1 23 -40 0
1 -15 -48 0
1 -44 -45 0
1 28 44 0
1 40 47 0
1 27 48 0
1 15 50 0
1 34 4 0
1 44 39 0
1 -36 -49 0
1 44 13 0
1 -6 -29 0
1 25 50 0
1 48 12 0
1 12 -33 0
1 36 -42 0
1 -31 6 0
1 -5 -19 0
1 31 -2 0
1 -31 3 0
1 3 -34 0
1 45 20 0
1 2 -32 0
1 23 1 0
1 7 2 0
1 20 14 0
1 -16 -25 0
1 28 -18 0
1 -2 -7 0
1 27 -41 0
1 22 -3 0
1 -3 33 0
1 34 16 0
1 29 -28 0
1 -3 -40 0
1 8 40 0
1 47 40 0
1 30 7 0
1 -9 18 0
1 50 -43 0
1 -8 -41 0
1 -19 41 0
1 31 -19 0
1 -9 10 0
1 -50 -3 0
1 -9 29 0
1 -46 -27 0
1 -19 -1 0
1 42 15 0
1 -6 -42 0
1 11 31 0
1 41 -22 0
1 24 -50 0
1 28 50 0
1 27 -30 0
1 30 47 0
1 -12 33 0
1 24 -12 0
1 42 -26 0
1 47 26 0
1 25 41 0
1 -41 3 0
1 33 44 0
1 -40 32 0
1 -15 -18 0
1 20 -23 0
1 -25 -50 0
1 22 13 0
1 16 27 0
1 2 -20 0
1 -31 13 0
1 -46 37 0
1 -4 15 0
1 37 4 0
1 3 11 0
1 -24 -36 0
1 12 40 0
1 9 -7 0
1 19 45 0
1 32 -29 0
1 44 -11 0
1 -14 27 0
1 -38 3 0
1 -38 -27 0
1 16 5 0
1 11 -22 0
1 -16 -44 0
1 -18 -32 0
1 -40 17 0
1 8 -4 0
1 14 48 0
1 47 39 0
1 -13 -28 0
1 -8 46 0
1 43 35 0
1 22 -46 0
1 -37 -30 0
1 -34 -7 0
1 4 15 0
1 4 27 0
1 -5 39 0
1 35 -34 0
1 19 -30 0
1 -26 14 0
1 44 -24 0
1 30 -47 0
1 -12 33 0
1 -10 44 0
1 32 24 0
1 -8 -37 0
1 17 -43 0
1 6 -44 0
1 -18 -10 0
1 -7 50 0
1 -33 -15 0
1 8 -14 0
1 38 -30 0
1 17 -48 0
1 41 -37 0
1 -30 -29 0
1 -39 -22 0
1 21 25 0
1 -39 -46 0
1 -10 -50 0
1 -30 -42 0
1 -40 -13 0
1 -49 -4 0
1 33 22 0
1 43 19 0
1 43 -31 0
1 -26 -12 0
1 -12 -15 0
1 -7 -25 0
1 -37 -17 0
1 20 2 0
1 23 39 0
1 -8 -41 0
1 -21 -46 0
1 -8 10 0
1 25 -15 0
1 -39 -49 0
1 15 -2 0
1 -3 25 0
1 -14 11 0
1 1 20 0
1 16 2 0
1 -12 -50 0
1 14 3 0
1 -2 42 0
1 -43 -39 0
1 14 -36 0
1 -46 -11 0
1 30 -19 0
1 20 -35 0
1 34 -11 0
1 -14 33 0
1 -24 28 0
1 16 -29 0
1 15 31 0
1 41 5 0
1 23 -25 0
1 10 -33 0
1 -43 41 0
1 24 -40 0
1 17 -50 0
1 28 -25 0
1 6 -19 0
1 23 -11 0
1 -35 -31 0
1 -14 12 0
1 3 -27 0
1 16 -33 0
1 32 36 0
1 11 28 0
1 46 5 0
1 15 -27 0
1 -8 2 0
1 -13 29 0
1 -6 40 0
1 22 13 0
1 49 20 0
1 47 -14 0
1 19 -34 0
1 -11 24 0
1 -25 40 0
1 17 3 0
1 -43 31 0
1 35 32 0
1 -44 11 0
1 -35 41 0
1 -1 9 0
1 -40 47 0
1 36 38 0
1 40 -27 0
1 -7 -37 0
1 -18 40 0
1 1 -44 0
1 35 -43 0
1 1 -32 0
1 29 10 0
1 47 -23 0
1 50 25 0
1 -11 -6 0
1 -46 -42 0
1 -36 7 0
1 49 -36 0
1 -17 -40 0
1 45 9 0
1 25 -10 0
1 29 -22 0
1 -19 38 0
1 -27 46 0
1 -16 32 0
1 -31 11 0
1 6 14 0
1 -36 -32 0
1 48 39 0
1 -49 -8 0
1 38 49 0
1 45 46 0
1 -27 18 0
1 -28 -19 0
1 -32 42 0
1 23 38 0
1 -26 37 0
1 45 -28 0
1 -27 23 0
1 -19 -21 0
1 38 12 0
1 -31 29 0
1 -20 -47 0
1 34 43 0
1 -30 3 0
1 31 43 0
1 -16 -3 0
1 -23 9 0
1 -21 31 0
1 9 -24 0
1 20 43 0
1 36 34 0
1 -37 46 0
1 38 46 0
1 -48 1 0
1 -10 -16 0
1 -46 6 0
1 -30 -43 0
1 36 4 0
1 -38 15 0
1 -11 -25 0
1 20 14 0
1 -15 39 0
1 5 20 0
1 26 34 0
1 26 39 0
1 -43 -7 0
1 22 -18 0
1 -43 45 0
1 -9 32 0
1 -21 19 0
1 -39 2 0
1 35 32 0
1 20 23 0
1 -29 4 0
1 -21 46 0
1 -41 -12 0
1 43 6 0
1 -24 21 0
1 -22 14 0
1 45 44 0
1 -16 -38 0
1 -42 17 0
1 13 27 0
1 39 -50 0
1 -5 -24 0
1 -44 32 0
1 46 -16 0
1 9 37 0
1 25 29 0
1 -46 13 0
1 40 -3 0
1 2 11 0
1 -35 -4 0
1 -36 -26 0
1 41 -13 0
1 50 24 0
1 -3 -41 0
1 4 -18 0
1 21 15 0
1 -26 31 0
1 -34 14 0
1 -39 -30 0
1 -43 -20 0
1 44 -50 0
1 -41 -8 0
1 -26 -48 0
1 12 -9 0
1 -39 46 0
1 -9 -34 0
1 14 41 0
1 -10 3 0
1 -3 -16 0
1 -23 -41 0
1 -38 -25 0
1 -33 10 0
1 -5 34 0
1 17 -34 0
1 -24 -35 0
1 -38 -35 0
1 -50 35 0
1 26 20 0
1 44 -12 0
1 -22 -50 0
1 -33 -39 0
1 -23 -50 0
1 -35 16 0
1 50 -17 0
1 1 -43 0
1 -12 40 0
1 -2 3 0
1 -3 -27 0
1 -16 -39 0
1 -39 14 0
1 -29 -15 0
1 -31 -6 0
1 48 49 0
1 39 -48 0
1 50 45 0
1 -22 -13 0
1 -2 -21 0
1 34 11 0
1 -25 8 0
1 -13 20 0
1 19 44 0
1 -41 -34 0
1 -29 12 0
1 -24 -30 0
1 50 -14 0
1 -24 -28 0
1 35 -38 0
1 7 -38 0
1 -32 27 0
1 11 -31 0
1 -42 5 0
1 -34 -27 0
1 41 6 0
1 34 14 0
1 1 14 0
1 -2 -23 0
1 49 16 0
1 -47 -17 0
1 22 37 0
1 -14 44 0
1 50 -7 0
1 20 29 0
1 -43 -16 0
1 -38 -11 0
1 -27 33 0
1 49 43 0
1 -30 -16 0
1 -10 16 0
1 -22 -14 0
1 43 -41 0
1 -7 -39 0
1 -50 -7 0
1 -40 -25 0
1 18 -12 0
1 -27 -35 0
1 -50 37 0
1 1 -35 0
1 -25 -22 0
1 11 8 0
1 -15 5 0
1 -30 -36 0
1 -47 50 0
1 -35 8 0
1 2 -6 0
1 17 -15 0
1 -43 -42 0
1 16 9 0
1 -45 -18 0
1 -9 47 0
1 -41 -49 0
1 -7 28 0
1 -33 -19 0
1 -33 3 0
1 44 38 0
1 -46 -39 0
1 6 30 0
1 26 46 0
1 -45 17 0
1 45 -40 0
1 -8 -1 0
1 3 -15 0
1 3 -40 0
1 -28 -37 0
1 -16 -9 0
1 5 -21 0
1 -38 -1 0
1 40 -7 0
1 -8 36 0
1 50 2 0
1 41 14 0
1 50 40 0
1 48 50 0
1 21 16 0
1 -16 50 0
1 7 48 0
1 33 -41 0
1 -42 -31 0
1 44 -36 0
1 25 4 0
1 4 16 0
1 -31 -25 0
1 25 -22 0
1 -20 5 0
1 -45 -18 0
1 49 -21 0
1 -6 -21 0
1 25 -44 0
1 9 -28 0
1 -2 -33 0
1 5 37 0
1 -41 -2 0
1 20 11 0
1 31 -42 0
1 13 -44 0
1 38 -20 0
1 -47 -15 0
1 48 19 0
1 5 -32 0
1 -34 50 0
1 10 -3 0
1 -45 29 0
1 -23 43 0
1 13 7 0
1 21 40 0
1 8 33 0
1 15 -44 0
1 -44 39 0
1 -42 -20 0
1 -49 19 0
1 -12 35 0
1 -42 36 0
1 -25 -40 0
1 -22 -50 0
1 -43 -3 0
1 -42 -33 0
1 3 32 0
1 50 11 0
1 -46 -2 0
1 -38 16 0
1 -6 -29 0
1 29 40 0
1 43 -46 0
1 28 -45 0
1 -27 -37 0
1 -47 -2 0
1 -4 -21 0
1 37 -29 0
1 8 -49 0
1 39 -30 0
1 26 13 0
1 -8 -33 0
1 20 14 0
1 15 47 0
1 17 39 0
1 -17 14 0
1 -12 -11 0
1 17 -31 0
1 -47 -20 0
1 -3 21 0
1 -30 -15 0
1 -23 49 0
1 -9 45 0
1 -39 3 0
1 -13 -33 0
1 14 9 0
1 -28 -45 0
1 -15 -38 0
1 2 26 0
1 -25 -13 0
1 8 -14 0
1 -17 -38 0
1 21 -39 0
1 -48 -17 0
1 11 -34 0
1 21 1 0
1 -27 41 0
1 -4 32 0
1 46 41 0
1 -29 -4 0
1 -43 -49 0
1 15 27 0
1 10 -21 0
1 22 -21 0
1 -12 48 0
1 30 35 0
1 -25 32 0
1 36 -26 0
1 24 -35 0
1 12 33 0
1 3 14 0
1 35 -4 0
1 2 -22 0
1 7 -36 0
1 -17 41 0
1 -17 -36 0
1 -21 -48 0
1 31 -42 0
1 -6 7 0
1 29 -36 0
1 46 -42 0
1 -47 -37 0
1 21 1 0
1 -31 -44 0
1 23 9 0
1 13 41 0
1 -47 -9 0
1 45 -38 0
1 29 31 0
1 18 -19 0
1 -19 -15 0
1 -9 -22 0
1 -31 -35 0
1 25 13 0
1 -22 38 0
1 25 22 0
1 -2 27 0
1 45 39 0
1 3 1 0
1 -22 37 0
1 -21 -35 0
1 48 6 0
1 -43 14 0
1 35 -41 0
1 17 47 0
1 35 -12 0
1 -13 -34 0
1 -21 -40 0
1 -25 31 0
1 -37 -4 0
1 -18 28 0
1 -18 -15 0
1 -11 -43 0
1 -5 19 0
1 3 33 0
1 23 -37 0
1 18 2 0
1 -6 12 0
1 40 27 0
1 -42 13 0
1 -6 38 0
1 -6 32 0
1 -14 -26 0
1 -12 -47 0
1 -49 4 0
1 -16 14 0
1 41 -2 0
1 -14 3 0
1 -40 -33 0
1 14 -4 0
1 30 -37 0
1 34 -48 0
1 -1 2 0
1 16 14 0
1 -15 -32 0
1 -35 24 0
1 6 26 0
1 -30 25 0
1 -12 -11 0
1 -9 19 0
1 21 -14 0
1 -27 -46 0
1 27 32 0
1 -5 18 0
1 -44 5 0
1 -30 -27 0
1 -38 -30 0
1 49 12 0
1 26 31 0
1 -26 48 0
1 30 -15 0
1 -32 -48 0
1 -2 -25 0
1 1 -29 0
1 -9 8 0
1 -20 -40 0
1 -20 -31 0
1 -29 41 0
1 -6 -9 0
1 6 37 0
1 -12 11 0
1 39 -11 0
1 18 -35 0
1 -24 -30 0
1 -11 -29 0
1 -20 33 0
1 42 -39 0
1 26 -24 0
1 -34 43 0
1 4 49 0
1 33 24 0
1 -4 41 0
1 19 -36 0
1 19 50 0
1 39 23 0
1 47 -11 0
1 4 50 0
1 -49 -21 0
1 -45 -38 0
1 28 -37 0
1 -23 -14 0
1 13 46 0
1 18 8 0
1 -19 17 0
1 -16 45 0
1 -16 8 0
1 46 33 0
1 -19 42 0
1 -32 -46 0
1 -47 15 0
1 -29 9 0
1 30 44 0
1 8 33 0
1 -43 -12 0
1 35 5 0
1 46 -2 0
1 47 -3 0
1 18 -50 0
1 8 -33 0
1 -27 -34 0
1 -17 12 0
1 24 22 0
1 26 27 0
1 -28 15 0
1 17 -8 0
1 -7 23 0
1 5 -48 0
1 32 -48 0
1 10 -1 0
1 -22 -14 0
1 41 50 0
1 -15 -16 0
1 23 -11 0
1 -33 -45 0
1 43 46 0
1 43 32 0
1 -33 26 0
1 40 -24 0
1 -24 -19 0
1 34 42 0
1 -3 -35 0
1 30 29 0
1 -24 40 0
1 22 15 0
1 41 -2 0
1 26 -9 0
1 -27 10 0
1 2 6 0
1 -40 2 0
1 -30 10 0
1 49 34 0
1 49 -37 0
1 38 31 0
1 39 30 0
1 -40 -49 0
1 -4 -42 0
1 44 33 0
1 -42 -1 0
1 35 -45 0
1 31 34 0
1 -14 40 0
1 20 45 0
1 -44 -43 0
1 -35 -44 0
1 26 2 0
1 3 -26 0
1 21 19 0
1 2 41 0
1 31 -2 0
1 46 -34 0
1 -26 8 0
1 -1 -26 0
1 -28 -37 0
1 13 -3 0
1 -21 37 0
1 -27 3 0
1 -4 -7 0
1 15 39 0
1 25 -21 0
1 -8 -50 0
1 45 -8 0
1 24 40 0
1 -23 -39 0
1 -26 -44 0
1 50 29 0
1 -18 -27 0
1 -48 11 0
1 -11 19 0
1 26 -6 0
1 45 18 0
1 -6 -46 0
1 39 -21 0
1 50 25 0
1 1 -40 0
1 50 3 0
1 -2 14 0
1 15 -43 0
1 -2 -18 0
1 -10 -18 0
1 -28 25 0
1 27 46 0
1 4 1 0
1 4 26 0
1 39 14 0
1 -7 13 0
1 31 -21 0
1 39 42 0
1 16 -50 0
1 45 -20 0
1 21 24 0
1 -49 -22 0
1 -35 -41 0
1 -4 -24 0
1 45 -5 0
1 -46 44 0
1 43 -17 0
1 -37 10 0
1 -34 -38 0
1 9 -10 0
1 -1 9 0
1 -33 -34 0
1 38 -13 0
1 -6 -10 0
1 -26 46 0
1 6 -23 0
1 10 49 0
1 8 40 0
1 49 -47 0
1 30 1 0
1 13 18 0
1 27 45 0
1 41 -4 0
1 -27 -33 0
1 31 -6 0
1 -46 -17 0
1 13 -10 0
1 10 33 0
1 -50 -12 0
1 -6 -9 0
1 -13 -44 0
1 -26 27 0
1 -33 -31 0
1 47 42 0
1 1 46 0
1 -29 -13 0
1 24 -25 0
1 33 -35 0
1 -28 17 0
1 43 11 0
1 42 -5 0
1 -47 -25 0
1 20 -50 0
1 -13 -41 0
1 15 -31 0
1 -16 -39 0
1 -5 -28 0
1 38 -7 0
1 12 26 0
1 50 15 0
1 15 -13 0
1 4 43 0
1 24 -26 0
1 -15 8 0
1 35 29 0
1 36 -40 0
1 15 19 0
1 -34 -10 0
1 22 50 0
1 -43 36 0
1 11 -8 0
1 -15 -38 0
1 16 12 0
1 -2 24 0
1 -42 2 0
1 11 -12 0
1 11 46 0
1 31 -50 0
1 7 25 0
1 -12 21 0
1 42 29 0
1 26 -41 0
1 -20 -32 0
1 -4 -20 0
1 -27 -46 0
1 -15 -22 0
1 39 5 0
1 25 29 0
1 -8 -49 0
1 40 38 0
1 -20 47 0
1 16 -32 0
1 27 -2 0
1 -23 3 0
1 8 -32 0
1 -11 36 0
1 35 30 0
%
0

